(set-logic QF_LIA)
(declare-fun x0 () Int)
(declare-fun x1 () Int)
(declare-fun x2 () Int)
(declare-fun x3 () Int)
(declare-fun x4 () Int)
(declare-fun x5 () Int)
(declare-fun x6 () Int)
(declare-fun x7 () Int)
(declare-fun x8 () Int)
(declare-fun x9 () Int)
(declare-fun A2 () Bool)
(declare-fun A3 () Bool)
(declare-fun A4 () Bool)
(declare-fun A6 () Bool)
(declare-fun A9 () Bool)
(assert (let ((.def_0 (* 1 x1))) (let ((.def_1 (* 1 x9))) (let ((.def_2 (+ .def_1 .def_0))) (let ((.def_3 (< .def_2 1))) (let ((.def_4 (= A9 .def_3))) (let ((.def_5 (* (- 1) x1))) (let ((.def_6 (* 1 x7))) (let ((.def_7 (+ .def_6 .def_5))) (let ((.def_8 (< .def_7 1))) (let ((.def_9 (* (- 1) x2))) (let ((.def_10 (< .def_9 1))) (let ((.def_11 (or .def_10 .def_8))) (let ((.def_12 (and .def_11 .def_4))) (let ((.def_13 (not .def_12))) (let ((.def_14 (not A4))) (let ((.def_15 (not A3))) (let ((.def_16 (= .def_15 .def_14))) (let ((.def_17 (< .def_1 (- 1)))) (let ((.def_18 (not .def_17))) (let ((.def_19 (* (- 1) x3))) (let ((.def_20 (+ .def_0 .def_19))) (let ((.def_21 (< .def_20 (- 1)))) (let ((.def_22 (or .def_21 .def_18))) (let ((.def_23 (not .def_22))) (let ((.def_24 (and .def_23 .def_16))) (let ((.def_25 (or .def_24 .def_13))) (let ((.def_26 (not .def_25))) (let ((.def_27 (* (- 1) x4))) (let ((.def_28 (+ .def_27 .def_0))) (let ((.def_29 (< .def_28 (- 1)))) (let ((.def_30 (not .def_10))) (let ((.def_31 (= .def_30 .def_29))) (let ((.def_32 (< .def_9 (- 1)))) (let ((.def_33 (not .def_32))) (let ((.def_34 (and A6 .def_33))) (let ((.def_35 (not .def_34))) (let ((.def_36 (or .def_35 .def_31))) (let ((.def_37 (and A6 A2))) (let ((.def_38 (+ .def_5 .def_1))) (let ((.def_39 (< .def_38 1))) (let ((.def_40 (not .def_39))) (let ((.def_41 (+ .def_19 .def_6))) (let ((.def_42 (< .def_41 1))) (let ((.def_43 (not .def_42))) (let ((.def_44 (or .def_43 .def_40))) (let ((.def_45 (and .def_44 .def_37))) (let ((.def_46 (and .def_45 .def_36))) (let ((.def_47 (not .def_46))) (let ((.def_48 (or .def_47 .def_26))) (let ((.def_49 (not .def_48))) (let ((.def_50 (<= x9 1))) (let ((.def_51 (<= 0 x9))) (let ((.def_52 (<= x8 1))) (let ((.def_53 (<= 0 x8))) (let ((.def_54 (<= x7 1))) (let ((.def_55 (<= 0 x7))) (let ((.def_56 (<= x6 1))) (let ((.def_57 (<= 0 x6))) (let ((.def_58 (<= x5 1))) (let ((.def_59 (<= 0 x5))) (let ((.def_60 (<= x4 1))) (let ((.def_61 (<= 0 x4))) (let ((.def_62 (<= x3 1))) (let ((.def_63 (<= 0 x3))) (let ((.def_64 (<= x2 1))) (let ((.def_65 (<= 0 x2))) (let ((.def_66 (<= x1 1))) (let ((.def_67 (<= 0 x1))) (let ((.def_68 (<= x0 1))) (let ((.def_69 (<= 0 x0))) (let ((.def_70 (and .def_69 .def_68 .def_67 .def_66 .def_65 .def_64 .def_63 .def_62 .def_61 .def_60 .def_59 .def_58 .def_57 .def_56 .def_55 .def_54 .def_53 .def_52 .def_51 .def_50 .def_49))) .def_70))))))))))))))))))))))))))))))))))))))))))))))))))))))))))))))))))))))))
(check-sat)
